NAME: instance_2264
TYPE: TSP
DIMENSION: 20
EDGE_WEIGHT_TYPE: EUC_2D
NODE_COORD_SECTION
0 40.06 58.52
1 70.27 79.52
2 20.28 69.29
3 88.56 61.82
4 45.97 96.52
5 86.76 26.64
6 8.15 44.03
7 50.91 4.58
8 77.71 3.16
9 2.36 88.13
10 46.81 76.93
11 32.84 42.12
12 60.16 35.86
13 52.53 12.43
14 58.52 23.25
15 76.66 11.47
16 12.42 55.35
17 37.09 78.59
18 42.10 20.34
19 46.26 75.10
EOF
